50
12354

316 154
291 21
592 978
158 581
272 225
236 302
828 803
496 248
479 560
907 282
341 68
999 964
919 228
43 132
812 725
943 924
881 263
95 925
682 853
879 209
190 750
158 850
400 889
48 201
246 593
655 662
813 992
922 125
10 513
423 327
810 829
744 506
171 376
134 386
314 90
640 846
644 538
815 663
692 99
153 35
525 26
611 572
570 739
832 94
604 84
50 180
615 874
577 400
111 708
310 323
